benchmark/results/graph__15-1000-0.10-02_9/graph__15-1000-0.10-02_9_QuintonOs_Benders_primal_sub.lp
\ This file has been generated by DOcplex
\ ENCODING=ISO-8859-1
\Problem name: Quinton Bounded Benders_primal_sub

Maximize
 obj: tau
Subject To
 c1: tau <= 0.001412429379
 c2: y_a0_proc_0 - tau = 0
 c3: y_a0_proc_0 <= 1
 c4: tau <= 0.001400560224
 c5: y_a1_proc_0 + y_a1_proc_1 - tau = 0
 c6: y_a1_proc_0 <= 1
 c7: y_a1_proc_1 <= 0
 c8: tau <= 0.002242152466
 c9: y_a2_proc_0 + y_a2_proc_1 - tau = 0
 c10: y_a2_proc_0 <= 1
 c11: y_a2_proc_1 <= 0
 c12: tau <= 0.001686340641
 c13: y_a3_proc_1 - tau = 0
 c14: y_a3_proc_1 <= 1
 c15: tau <= 0.001043841336
 c16: y_a4_proc_0 - tau = 0
 c17: y_a4_proc_0 <= 1
 c18: tau <= 0.000976562500
 c19: y_a5_proc_1 - tau = 0
 c20: y_a5_proc_1 <= 1
 c21: tau <= 0.001499250375
 c22: y_a6_proc_0 + y_a6_proc_1 - tau = 0
 c23: y_a6_proc_0 <= 1
 c24: y_a6_proc_1 <= 0
 c25: tau <= 0.001912045889
 c26: y_a7_proc_1 - tau = 0
 c27: y_a7_proc_1 <= 1
 c28: tau <= 0.001206272618
 c29: y_a8_proc_1 - tau = 0
 c30: y_a8_proc_1 <= 1
 c31: tau <= 0.000980392157
 c32: y_a9_proc_1 - tau = 0
 c33: y_a9_proc_1 <= 1
 c34: tau <= 0.001275510204
 c35: y_a10_proc_0 + y_a10_proc_1 - tau = 0
 c36: y_a10_proc_0 <= 1
 c37: y_a10_proc_1 <= 0
 c38: tau <= 0.000772797527
 c39: y_a11_proc_1 - tau = 0
 c40: y_a11_proc_1 <= 1
 c41: tau <= 0.001792114695
 c42: y_a12_proc_0 + y_a12_proc_1 - tau = 0
 c43: y_a12_proc_0 <= 0
 c44: y_a12_proc_1 <= 1
 c45: tau <= 0.001136363636
 c46: y_a13_proc_0 - tau = 0
 c47: y_a13_proc_0 <= 1
 c48: tau <= 0.001508295626
 c49: y_a14_proc_0 + y_a14_proc_1 - tau = 0
 c50: y_a14_proc_0 <= 1
 c51: y_a14_proc_1 <= 0
 c52: u_a0 - u_a1 - 714 y_a1_proc_0 - 987 y_a1_proc_1 >= 0
 c53: u_a2 - u_a1 - 714 y_a1_proc_0 - 987 y_a1_proc_1 >= -1
 c54: u_a3 - u_a0 - 708 y_a0_proc_0 >= 0
 c55: u_a4 - u_a3 - 593 y_a3_proc_1 >= 0
 c56: u_a5 - u_a0 - 708 y_a0_proc_0 >= -2
 c57: u_a0 - u_a6 - 667 y_a6_proc_0 - 1180 y_a6_proc_1 >= 0
 c58: u_a6 - u_a7 - 523 y_a7_proc_1 >= 0
 c59: u_a8 - u_a1 - 714 y_a1_proc_0 - 987 y_a1_proc_1 >= 0
 c60: u_a8 - u_a9 - 1020 y_a9_proc_1 >= 0
 c61: u_a10 - u_a3 - 593 y_a3_proc_1 >= -1
 c62: u_a1 - u_a11 - 1294 y_a11_proc_1 >= 0
 c63: u_a2 - u_a12 - 1113 y_a12_proc_0 - 558 y_a12_proc_1 >= 0
 c64: u_a13 - u_a5 - 1024 y_a5_proc_1 >= 0
 c65: u_a13 - u_a14 - 663 y_a14_proc_0 - 830 y_a14_proc_1 >= -1
 c66: u_a6 - u_a13 - 880 y_a13_proc_0 >= 0
 c67: u_a10 - u_a8 - 829 y_a8_proc_1 >= -1
 c68: u_a12 - u_a13 - 880 y_a13_proc_0 >= 0
 c69: u_a11 - u_a3 - 593 y_a3_proc_1 >= -1
 c70: u_a5 - u_a10 - 784 y_a10_proc_0 - 1031 y_a10_proc_1 >= -1
 c71: u_a5 - u_a6 - 667 y_a6_proc_0 - 1180 y_a6_proc_1 >= -1
 c72: u_a8 - u_a4 - 958 y_a4_proc_0 >= -1
 c73: u_a7 - u_a2 - 446 y_a2_proc_0 - 296 y_a2_proc_1 >= 0
 c74: u_a7 - u_a13 - 880 y_a13_proc_0 >= 0
 c75: u_a2 - u_a14 - 663 y_a14_proc_0 - 830 y_a14_proc_1 >= -1
 c76: u_a14 - u_a10 - 784 y_a10_proc_0 - 1031 y_a10_proc_1 >= 0
 c77: u_a9 - u_a7 - 523 y_a7_proc_1 >= 0
 c78: u_a1 - u_a0 - 708 y_a0_proc_0 >= -1
 c79: u_a0 - u_a1 - 714 y_a1_proc_0 >= 0
 c80: u_a2 - u_a0 - 708 y_a0_proc_0 >= -1
 c81: u_a0 - u_a2 - 446 y_a2_proc_0 >= 0
 c82: u_a4 - u_a0 - 708 y_a0_proc_0 >= 0
 c83: u_a0 - u_a4 - 958 y_a4_proc_0 >= -1
 c84: u_a6 - u_a0 - 708 y_a0_proc_0 >= -1
 c85: u_a0 - u_a6 - 667 y_a6_proc_0 >= 0
 c86: u_a10 - u_a0 - 708 y_a0_proc_0 >= -1
 c87: u_a0 - u_a10 - 784 y_a10_proc_0 >= 0
 c88: u_a12 - u_a0 - 708 y_a0_proc_0 >= -1311
 c89: u_a0 - u_a12 - 1113 y_a12_proc_0 >= -1278
 c90: u_a13 - u_a0 - 708 y_a0_proc_0 >= -1
 c91: u_a0 - u_a13 - 880 y_a13_proc_0 >= 0
 c92: u_a14 - u_a0 - 708 y_a0_proc_0 >= 0
 c93: u_a0 - u_a14 - 663 y_a14_proc_0 >= -1
 c94: u_a2 - u_a1 - 714 y_a1_proc_0 >= -1
 c95: u_a2 - u_a1 - 987 y_a1_proc_1 >= -2589
 c96: u_a1 - u_a2 - 446 y_a2_proc_0 >= 0
 c97: u_a1 - u_a2 - 296 y_a2_proc_1 >= -2588
 c98: u_a3 - u_a1 - 987 y_a1_proc_1 >= -1311
 c99: u_a1 - u_a3 - 593 y_a3_proc_1 >= -1278
 c100: u_a4 - u_a1 - 714 y_a1_proc_0 >= 0
 c101: u_a1 - u_a4 - 958 y_a4_proc_0 >= -1
 c102: u_a5 - u_a1 - 987 y_a1_proc_1 >= -1311
 c103: u_a1 - u_a5 - 1024 y_a5_proc_1 >= -1278
 c104: u_a6 - u_a1 - 714 y_a1_proc_0 >= -1
 c105: u_a6 - u_a1 - 987 y_a1_proc_1 >= -2589
 c106: u_a1 - u_a6 - 667 y_a6_proc_0 >= 0
 c107: u_a1 - u_a6 - 1180 y_a6_proc_1 >= -2588
 c108: u_a7 - u_a1 - 987 y_a1_proc_1 >= -1311
 c109: u_a1 - u_a7 - 523 y_a7_proc_1 >= -1278
 c110: u_a8 - u_a1 - 987 y_a1_proc_1 >= -1311
 c111: u_a1 - u_a8 - 829 y_a8_proc_1 >= -1278
 c112: u_a9 - u_a1 - 987 y_a1_proc_1 >= -1278
 c113: u_a1 - u_a9 - 1020 y_a9_proc_1 >= -1311
 c114: u_a10 - u_a1 - 714 y_a1_proc_0 >= -1
 c115: u_a10 - u_a1 - 987 y_a1_proc_1 >= -2589
 c116: u_a1 - u_a10 - 784 y_a10_proc_0 >= 0
 c117: u_a1 - u_a10 - 1031 y_a10_proc_1 >= -2588
 c118: u_a11 - u_a1 - 987 y_a1_proc_1 >= -1311
 c119: u_a1 - u_a11 - 1294 y_a11_proc_1 >= -1278
 c120: u_a12 - u_a1 - 714 y_a1_proc_0 >= -1311
 c121: u_a12 - u_a1 - 987 y_a1_proc_1 >= -1311
 c122: u_a1 - u_a12 - 1113 y_a12_proc_0 >= -1278
 c123: u_a1 - u_a12 - 558 y_a12_proc_1 >= -1278
 c124: u_a13 - u_a1 - 714 y_a1_proc_0 >= -1
 c125: u_a1 - u_a13 - 880 y_a13_proc_0 >= 0
 c126: u_a14 - u_a1 - 714 y_a1_proc_0 >= 0
 c127: u_a14 - u_a1 - 987 y_a1_proc_1 >= -2588
 c128: u_a1 - u_a14 - 663 y_a14_proc_0 >= -1
 c129: u_a1 - u_a14 - 830 y_a14_proc_1 >= -2589
 c130: u_a3 - u_a2 - 296 y_a2_proc_1 >= -1278
 c131: u_a2 - u_a3 - 593 y_a3_proc_1 >= -1311
 c132: u_a4 - u_a2 - 446 y_a2_proc_0 >= 0
 c133: u_a2 - u_a4 - 958 y_a4_proc_0 >= -1
 c134: u_a5 - u_a2 - 296 y_a2_proc_1 >= -1311
 c135: u_a2 - u_a5 - 1024 y_a5_proc_1 >= -1278
 c136: u_a6 - u_a2 - 446 y_a2_proc_0 >= 0
 c137: u_a6 - u_a2 - 296 y_a2_proc_1 >= -2588
 c138: u_a2 - u_a6 - 667 y_a6_proc_0 >= -1
 c139: u_a2 - u_a6 - 1180 y_a6_proc_1 >= -2589
 c140: u_a7 - u_a2 - 296 y_a2_proc_1 >= -1311
 c141: u_a2 - u_a7 - 523 y_a7_proc_1 >= -1278
 c142: u_a8 - u_a2 - 296 y_a2_proc_1 >= -1278
 c143: u_a2 - u_a8 - 829 y_a8_proc_1 >= -1311
 c144: u_a9 - u_a2 - 296 y_a2_proc_1 >= -1311
 c145: u_a2 - u_a9 - 1020 y_a9_proc_1 >= -1278
 c146: u_a10 - u_a2 - 446 y_a2_proc_0 >= 0
 c147: u_a10 - u_a2 - 296 y_a2_proc_1 >= -2588
 c148: u_a2 - u_a10 - 784 y_a10_proc_0 >= -1
 c149: u_a2 - u_a10 - 1031 y_a10_proc_1 >= -2589
 c150: u_a11 - u_a2 - 296 y_a2_proc_1 >= -1311
 c151: u_a2 - u_a11 - 1294 y_a11_proc_1 >= -1278
 c152: u_a12 - u_a2 - 446 y_a2_proc_0 >= -1311
 c153: u_a12 - u_a2 - 296 y_a2_proc_1 >= -1311
 c154: u_a2 - u_a12 - 1113 y_a12_proc_0 >= -1278
 c155: u_a2 - u_a12 - 558 y_a12_proc_1 >= -1278
 c156: u_a13 - u_a2 - 446 y_a2_proc_0 >= -1
 c157: u_a2 - u_a13 - 880 y_a13_proc_0 >= 0
 c158: u_a14 - u_a2 - 446 y_a2_proc_0 >= 0
 c159: u_a14 - u_a2 - 296 y_a2_proc_1 >= -2588
 c160: u_a2 - u_a14 - 663 y_a14_proc_0 >= -1
 c161: u_a2 - u_a14 - 830 y_a14_proc_1 >= -2589
 c162: u_a5 - u_a3 - 593 y_a3_proc_1 >= -2
 c163: u_a3 - u_a5 - 1024 y_a5_proc_1 >= 1
 c164: u_a6 - u_a3 - 593 y_a3_proc_1 >= -1311
 c165: u_a3 - u_a6 - 1180 y_a6_proc_1 >= -1278
 c166: u_a7 - u_a3 - 593 y_a3_proc_1 >= -1
 c167: u_a3 - u_a7 - 523 y_a7_proc_1 >= 0
 c168: u_a8 - u_a3 - 593 y_a3_proc_1 >= -1
 c169: u_a3 - u_a8 - 829 y_a8_proc_1 >= 0
 c170: u_a9 - u_a3 - 593 y_a3_proc_1 >= -1
 c171: u_a3 - u_a9 - 1020 y_a9_proc_1 >= 0
 c172: u_a10 - u_a3 - 593 y_a3_proc_1 >= -1311
 c173: u_a3 - u_a10 - 1031 y_a10_proc_1 >= -1278
 c174: u_a11 - u_a3 - 593 y_a3_proc_1 >= -1
 c175: u_a3 - u_a11 - 1294 y_a11_proc_1 >= 0
 c176: u_a12 - u_a3 - 593 y_a3_proc_1 >= -1
 c177: u_a3 - u_a12 - 558 y_a12_proc_1 >= 0
 c178: u_a14 - u_a3 - 593 y_a3_proc_1 >= -1311
 c179: u_a3 - u_a14 - 830 y_a14_proc_1 >= -1278
 c180: u_a6 - u_a4 - 958 y_a4_proc_0 >= -1
 c181: u_a4 - u_a6 - 667 y_a6_proc_0 >= 0
 c182: u_a10 - u_a4 - 958 y_a4_proc_0 >= -1
 c183: u_a4 - u_a10 - 784 y_a10_proc_0 >= 0
 c184: u_a12 - u_a4 - 958 y_a4_proc_0 >= -1278
 c185: u_a4 - u_a12 - 1113 y_a12_proc_0 >= -1311
 c186: u_a13 - u_a4 - 958 y_a4_proc_0 >= -2
 c187: u_a4 - u_a13 - 880 y_a13_proc_0 >= 1
 c188: u_a14 - u_a4 - 958 y_a4_proc_0 >= -1
 c189: u_a4 - u_a14 - 663 y_a14_proc_0 >= 0
 c190: u_a6 - u_a5 - 1024 y_a5_proc_1 >= -1311
 c191: u_a5 - u_a6 - 1180 y_a6_proc_1 >= -1278
 c192: u_a7 - u_a5 - 1024 y_a5_proc_1 >= 0
 c193: u_a5 - u_a7 - 523 y_a7_proc_1 >= -1
 c194: u_a8 - u_a5 - 1024 y_a5_proc_1 >= 1
 c195: u_a5 - u_a8 - 829 y_a8_proc_1 >= -2
 c196: u_a9 - u_a5 - 1024 y_a5_proc_1 >= 0
 c197: u_a5 - u_a9 - 1020 y_a9_proc_1 >= -1
 c198: u_a10 - u_a5 - 1024 y_a5_proc_1 >= -1311
 c199: u_a5 - u_a10 - 1031 y_a10_proc_1 >= -1278
 c200: u_a11 - u_a5 - 1024 y_a5_proc_1 >= 0
 c201: u_a5 - u_a11 - 1294 y_a11_proc_1 >= -1
 c202: u_a12 - u_a5 - 1024 y_a5_proc_1 >= 0
 c203: u_a5 - u_a12 - 558 y_a12_proc_1 >= -1
 c204: u_a14 - u_a5 - 1024 y_a5_proc_1 >= -1311
 c205: u_a5 - u_a14 - 830 y_a14_proc_1 >= -1278
 c206: u_a7 - u_a6 - 1180 y_a6_proc_1 >= -1311
 c207: u_a6 - u_a7 - 523 y_a7_proc_1 >= -1278
 c208: u_a8 - u_a6 - 1180 y_a6_proc_1 >= -1311
 c209: u_a6 - u_a8 - 829 y_a8_proc_1 >= -1278
 c210: u_a9 - u_a6 - 1180 y_a6_proc_1 >= -1311
 c211: u_a6 - u_a9 - 1020 y_a9_proc_1 >= -1278
 c212: u_a10 - u_a6 - 667 y_a6_proc_0 >= -1
 c213: u_a10 - u_a6 - 1180 y_a6_proc_1 >= -2589
 c214: u_a6 - u_a10 - 784 y_a10_proc_0 >= 0
 c215: u_a6 - u_a10 - 1031 y_a10_proc_1 >= -2588
 c216: u_a11 - u_a6 - 1180 y_a6_proc_1 >= -1278
 c217: u_a6 - u_a11 - 1294 y_a11_proc_1 >= -1311
 c218: u_a12 - u_a6 - 667 y_a6_proc_0 >= -1311
 c219: u_a12 - u_a6 - 1180 y_a6_proc_1 >= -1311
 c220: u_a6 - u_a12 - 1113 y_a12_proc_0 >= -1278
 c221: u_a6 - u_a12 - 558 y_a12_proc_1 >= -1278
 c222: u_a13 - u_a6 - 667 y_a6_proc_0 >= -1
 c223: u_a6 - u_a13 - 880 y_a13_proc_0 >= 0
 c224: u_a14 - u_a6 - 667 y_a6_proc_0 >= 0
 c225: u_a14 - u_a6 - 1180 y_a6_proc_1 >= -2588
 c226: u_a6 - u_a14 - 663 y_a14_proc_0 >= -1
 c227: u_a6 - u_a14 - 830 y_a14_proc_1 >= -2589
 c228: u_a8 - u_a7 - 523 y_a7_proc_1 >= 0
 c229: u_a7 - u_a8 - 829 y_a8_proc_1 >= -1
 c230: u_a9 - u_a7 - 523 y_a7_proc_1 >= 0
 c231: u_a7 - u_a9 - 1020 y_a9_proc_1 >= -1
 c232: u_a10 - u_a7 - 523 y_a7_proc_1 >= -1278
 c233: u_a7 - u_a10 - 1031 y_a10_proc_1 >= -1311
 c234: u_a11 - u_a7 - 523 y_a7_proc_1 >= -1
 c235: u_a7 - u_a11 - 1294 y_a11_proc_1 >= 0
 c236: u_a12 - u_a7 - 523 y_a7_proc_1 >= -1
 c237: u_a7 - u_a12 - 558 y_a12_proc_1 >= 0
 c238: u_a14 - u_a7 - 523 y_a7_proc_1 >= -1278
 c239: u_a7 - u_a14 - 830 y_a14_proc_1 >= -1311
 c240: u_a9 - u_a8 - 829 y_a8_proc_1 >= -1
 c241: u_a8 - u_a9 - 1020 y_a9_proc_1 >= 0
 c242: u_a10 - u_a8 - 829 y_a8_proc_1 >= -1311
 c243: u_a8 - u_a10 - 1031 y_a10_proc_1 >= -1278
 c244: u_a11 - u_a8 - 829 y_a8_proc_1 >= -1
 c245: u_a8 - u_a11 - 1294 y_a11_proc_1 >= 0
 c246: u_a12 - u_a8 - 829 y_a8_proc_1 >= -1
 c247: u_a8 - u_a12 - 558 y_a12_proc_1 >= 0
 c248: u_a14 - u_a8 - 829 y_a8_proc_1 >= -1278
 c249: u_a8 - u_a14 - 830 y_a14_proc_1 >= -1311
 c250: u_a10 - u_a9 - 1020 y_a9_proc_1 >= -1278
 c251: u_a9 - u_a10 - 1031 y_a10_proc_1 >= -1311
 c252: u_a11 - u_a9 - 1020 y_a9_proc_1 >= -1
 c253: u_a9 - u_a11 - 1294 y_a11_proc_1 >= 0
 c254: u_a12 - u_a9 - 1020 y_a9_proc_1 >= -1
 c255: u_a9 - u_a12 - 558 y_a12_proc_1 >= 0
 c256: u_a14 - u_a9 - 1020 y_a9_proc_1 >= -1311
 c257: u_a9 - u_a14 - 830 y_a14_proc_1 >= -1278
 c258: u_a11 - u_a10 - 1031 y_a10_proc_1 >= -1311
 c259: u_a10 - u_a11 - 1294 y_a11_proc_1 >= -1278
 c260: u_a12 - u_a10 - 784 y_a10_proc_0 >= -1278
 c261: u_a12 - u_a10 - 1031 y_a10_proc_1 >= -1278
 c262: u_a10 - u_a12 - 1113 y_a12_proc_0 >= -1311
 c263: u_a10 - u_a12 - 558 y_a12_proc_1 >= -1311
 c264: u_a13 - u_a10 - 784 y_a10_proc_0 >= -1
 c265: u_a10 - u_a13 - 880 y_a13_proc_0 >= 0
 c266: u_a14 - u_a10 - 784 y_a10_proc_0 >= 0
 c267: u_a14 - u_a10 - 1031 y_a10_proc_1 >= -2588
 c268: u_a10 - u_a14 - 663 y_a14_proc_0 >= -1
 c269: u_a10 - u_a14 - 830 y_a14_proc_1 >= -2589
 c270: u_a12 - u_a11 - 1294 y_a11_proc_1 >= -1
 c271: u_a11 - u_a12 - 558 y_a12_proc_1 >= 0
 c272: u_a14 - u_a11 - 1294 y_a11_proc_1 >= -1311
 c273: u_a11 - u_a14 - 830 y_a14_proc_1 >= -1278
 c274: u_a13 - u_a12 - 1113 y_a12_proc_0 >= -1311
 c275: u_a12 - u_a13 - 880 y_a13_proc_0 >= -1278
 c276: u_a14 - u_a12 - 1113 y_a12_proc_0 >= -1311
 c277: u_a14 - u_a12 - 558 y_a12_proc_1 >= -1311
 c278: u_a12 - u_a14 - 663 y_a14_proc_0 >= -1278
 c279: u_a12 - u_a14 - 830 y_a14_proc_1 >= -1278
 c280: u_a14 - u_a13 - 880 y_a13_proc_0 >= 0
 c281: u_a13 - u_a14 - 663 y_a14_proc_0 >= -1

Bounds
End
